3 3 2
30 1 19 0 28 1 54 2 163 0 105 1 187 0 74 1 179 0 198 2 39 1 108 0 172 2 106 1 15 0 15 2 99 0 25 2 25 0 67 2 133 0 60 1 130 0 59 2 151 1 136 0 146 1 110 2 21 0 153 1 179 
30 0 115 2 101 0 36 2 57 1 75 0 43 2 133 0 100 1 30 2 58 1 167 2 197 0 128 1 159 2 63 1 136 0 42 1 134 0 14 2 8 1 33 0 44 1 35 2 153 0 174 1 75 2 173 0 142 2 29 0 101 
30 1 154 2 22 1 113 2 176 1 37 0 120 2 31 0 164 1 51 2 115 0 114 1 123 0 99 1 165 2 164 1 182 0 65 2 42 0 60 1 1 2 137 0 156 1 99 2 34 0 168 1 131 0 105 1 66 0 88 2 175 

-------------
